[VALIDATOR STDOUT]
Type-checking move
...action passes type checking.
Type-checking pick
...action passes type checking.
Type-checking drop
...action passes type checking.
Checking plan: /home/jfan5/Safety-gen/runs/benchmark/optic/grippers_20260205_142606/grippers/optic_results/grippers-n1-r8-o6-s6001.plan
Plan to validate:

Plan size: 25
1:
(move robot1 room1 room8)
 
2:
(pick robot1 ball3 room8 lgripper1)
 
3:
(move robot1 room8 room5)
 
4:
(drop robot1 ball3 room5 lgripper1)
 
5:
(pick robot1 ball4 room5 rgripper1)
 
6:
(move robot1 room5 room8)
 
7:
(move robot1 room8 room3)
 
8:
(drop robot1 ball4 room3 rgripper1)
 
9:
(move robot1 room3 room8)
 
10:
(move robot1 room8 room7)
 
11:
(pick robot1 ball1 room7 lgripper1)
 
12:
(move robot1 room7 room8)
 
13:
(drop robot1 ball1 room8 lgripper1)
 
14:
(move robot1 room8 room7)
 
15:
(move robot1 room7 room4)
 
16:
(pick robot1 ball6 room4 lgripper1)
 
17:
(move robot1 room4 room7)
 
18:
(drop robot1 ball6 room7 lgripper1)
 
19:
(move robot1 room7 room2)
 
20:
(pick robot1 ball5 room2 lgripper1)
 
21:
(pick robot1 ball2 room2 rgripper1)
 
22:
(move robot1 room2 room7)
 
23:
(drop robot1 ball2 room7 rgripper1)
 
24:
(move robot1 room7 room1)
 
25:
(drop robot1 ball5 room1 lgripper1)
 

Plan Validation details
-----------------------

Checking next happening (time 1)
Deleting (at-robby robot1 room1)
Adding (at-robby robot1 room8)

Checking next happening (time 2)
Deleting (at ball3 room8)
Deleting (free robot1 lgripper1)
Adding (carry robot1 ball3 lgripper1)

Checking next happening (time 3)
Deleting (at-robby robot1 room8)
Adding (at-robby robot1 room5)

Checking next happening (time 4)
Deleting (carry robot1 ball3 lgripper1)
Adding (at ball3 room5)
Adding (free robot1 lgripper1)

Checking next happening (time 5)
Deleting (at ball4 room5)
Deleting (free robot1 rgripper1)
Adding (carry robot1 ball4 rgripper1)

Checking next happening (time 6)
Deleting (at-robby robot1 room5)
Adding (at-robby robot1 room8)

Checking next happening (time 7)
Deleting (at-robby robot1 room8)
Adding (at-robby robot1 room3)

Checking next happening (time 8)
Deleting (carry robot1 ball4 rgripper1)
Adding (at ball4 room3)
Adding (free robot1 rgripper1)

Checking next happening (time 9)
Deleting (at-robby robot1 room3)
Adding (at-robby robot1 room8)

Checking next happening (time 10)
Deleting (at-robby robot1 room8)
Adding (at-robby robot1 room7)

Checking next happening (time 11)
Deleting (at ball1 room7)
Deleting (free robot1 lgripper1)
Adding (carry robot1 ball1 lgripper1)

Checking next happening (time 12)
Deleting (at-robby robot1 room7)
Adding (at-robby robot1 room8)

Checking next happening (time 13)
Deleting (carry robot1 ball1 lgripper1)
Adding (at ball1 room8)
Adding (free robot1 lgripper1)

Checking next happening (time 14)
Deleting (at-robby robot1 room8)
Adding (at-robby robot1 room7)

Checking next happening (time 15)
Deleting (at-robby robot1 room7)
Adding (at-robby robot1 room4)

Checking next happening (time 16)
Deleting (at ball6 room4)
Deleting (free robot1 lgripper1)
Adding (carry robot1 ball6 lgripper1)

Checking next happening (time 17)
Deleting (at-robby robot1 room4)
Adding (at-robby robot1 room7)

Checking next happening (time 18)
Deleting (carry robot1 ball6 lgripper1)
Adding (at ball6 room7)
Adding (free robot1 lgripper1)

Checking next happening (time 19)
Deleting (at-robby robot1 room7)
Adding (at-robby robot1 room2)

Checking next happening (time 20)
Deleting (at ball5 room2)
Deleting (free robot1 lgripper1)
Adding (carry robot1 ball5 lgripper1)

Checking next happening (time 21)
Deleting (at ball2 room2)
Deleting (free robot1 rgripper1)
Adding (carry robot1 ball2 rgripper1)

Checking next happening (time 22)
Deleting (at-robby robot1 room2)
Adding (at-robby robot1 room7)

Checking next happening (time 23)
Deleting (carry robot1 ball2 rgripper1)
Adding (at ball2 room7)
Adding (free robot1 rgripper1)

Checking next happening (time 24)
Deleting (at-robby robot1 room7)
Adding (at-robby robot1 room1)

Checking next happening (time 25)
Deleting (carry robot1 ball5 lgripper1)
Adding (at ball5 room1)
Adding (free robot1 lgripper1)
Plan executed successfully - checking goal
Plan valid
Final value: 25 

Successful plans:
Value: 25
 /home/jfan5/Safety-gen/runs/benchmark/optic/grippers_20260205_142606/grippers/optic_results/grippers-n1-r8-o6-s6001.plan 25
